results_rootrelaxation/bin012_070_034.srr.sol
solution status: optimal solution found
objective value:                     8.53479381443299
_var716_                            0.565721649484537 	(obj:1)
_var721_                            0.434278350515464 	(obj:0)
_var724_                            0.264175257731959 	(obj:0)
_var739_                           0.0773195876288656 	(obj:1)
_var743_                           0.0940721649484531 	(obj:1)
_var759_                            0.239690721649485 	(obj:2)
_var762_                            0.452319587628866 	(obj:0)
_var768_                            0.262886597938144 	(obj:0)
_var770_                           0.0502577319587625 	(obj:1)
_var778_                           0.0605670103092779 	(obj:1)
_var781_                            0.150773195876288 	(obj:1)
_var786_                            0.137886597938145 	(obj:1)
_var791_                            0.257731958762886 	(obj:0)
_var809_                          0.00128865979381445 	(obj:0)
_var810_                            0.231958762886598 	(obj:1)
_var814_                            0.283505154639176 	(obj:1)
_var815_                            0.050257731958762 	(obj:2)
_var818_                            0.460051546391753 	(obj:2)
_var822_                            0.449742268041237 	(obj:0)
_var824_                           0.0502577319587626 	(obj:1)
_var827_                            0.328608247422681 	(obj:1)
_var830_                            0.534793814432989 	(obj:1)
_var831_                             0.11340206185567 	(obj:0)
_var833_                           0.0528350515463909 	(obj:1)
_var841_                           0.0502577319587625 	(obj:1)
_var843_                          0.00128865979381448 	(obj:1)
_var849_                            0.326030927835051 	(obj:0)
_var853_                            0.237113402061855 	(obj:0)
_var854_                            0.052835051546392 	(obj:0)
_var858_                           0.0309278350515469 	(obj:1)
_var861_                           0.0940721649484531 	(obj:1)
_var865_                            0.162371134020618 	(obj:1)
_var868_                            0.434278350515463 	(obj:0)
_var869_                            0.244845360824742 	(obj:1)
_var870_                            0.221649484536083 	(obj:1)
_var871_                           0.0657216494845362 	(obj:2)
_var873_                            0.269329896907216 	(obj:1)
_var874_                            0.181701030927834 	(obj:1)
_var876_                           0.0257731958762887 	(obj:1)
_var877_                             0.21778350515464 	(obj:1)
_var879_                            0.131443298969073 	(obj:1)
_var881_                            0.162371134020618 	(obj:2)
_var882_                           0.0322164948453609 	(obj:1)
_var884_                           0.0927835051546392 	(obj:1)
_var889_                            0.188144329896907 	(obj:0)
_var890_                          0.00515463917525827 	(obj:1)
_var893_                            0.088917525773196 	(obj:1)
_var897_                           0.0128865979381462 	(obj:1)
_var898_                            0.219072164948454 	(obj:0)
_var901_                            0.453608247422681 	(obj:2)
_var904_                            0.306701030927836 	(obj:1)
_var906_                             0.28479381443299 	(obj:0)
_var910_                           0.0953608247422687 	(obj:1)
_var912_                          0.00128865979381437 	(obj:1)
_var916_                          0.00515463917525827 	(obj:1)
_var917_                             0.21778350515464 	(obj:1)
_var918_                            0.121134020618557 	(obj:1)
_var919_                           0.0811855670103093 	(obj:2)
_var920_                            0.172680412371134 	(obj:1)
_var922_                            0.106958762886598 	(obj:1)
