results_rootrelaxation/bin012_070_034.srr.log
SCIP version 8.0.3.5 [precision: 8 byte] [memory: block] [mode: optimized] [LP solver: Soplex 6.0.1.3] [GitHash: 438792519e]
Copyright (c) 2002-2023 Zuse Institute Berlin (ZIB)

External libraries: 
  Readline 8.1         GNU library for command line editing (gnu.org/s/readline)
  Soplex 6.0.1.3       Linear Programming Solver developed at Zuse Institute Berlin (soplex.zib.de) [GitHash: 713be0fe]
  CppAD 20180000.0     Algorithmic Differentiation of C++ algorithms developed by B. Bell (github.com/coin-or/CppAD)
  ZLIB 1.2.11          General purpose compression library by J. Gailly and M. Adler (zlib.net)
  bliss 0.77           Computing Graph Automorphism Groups by T. Junttila and P. Kaski (www.tcs.hut.fi/Software/bliss/)

user parameter file <scip.set> not found - using default parameters

srr/relaxation = TRUE

read problem <instances/bin012_070_034.srr>
============

Original problem: 
original problem has 0 variables (0 bin, 0 int, 0 impl, 0 cont) and 77 constraints

presolving:
presolving (1 rounds: 1 fast, 1 medium, 1 exhaustive):
 0 deleted vars, 0 deleted constraints, 0 added constraints, 0 tightened bounds, 0 added holes, 0 changed sides, 0 changed coefficients
 0 implications, 0 cliques
presolved problem has 0 variables (0 bin, 0 int, 0 impl, 0 cont) and 77 constraints
     77 constraints of type <linear>
Presolving Time: 0.00

 time | node  | left  |LP iter|LP it/n|mem/heur|mdpt |vars |cons |rows |cuts |sepa|confs|strbr|  dualbound   | primalbound  |  gap   | compl. 
  0.0s|     1 |     0 |     1 |     - |   710k |   0 |   1 |  77 |  77 |   0 |  0 |   0 |   0 |      --      |      --      |    Inf | unknown
r 0.0s|     1 |     0 |   926 |     - |simplero|   0 | 683 |  77 |  77 |   0 |  0 |   0 |   0 |      --      | 2.746345e+01 |    Inf | unknown
r 0.1s|     1 |     0 |   952 |     - |simplero|   0 | 694 |  77 |  77 |   0 |  0 |   0 |   0 |      --      | 2.662674e+01 |    Inf | unknown
r 0.1s|     1 |     0 |   997 |     - |simplero|   0 | 705 |  77 |  77 |   0 |  0 |   0 |   0 |      --      | 2.498937e+01 |    Inf | unknown
r 0.1s|     1 |     0 |  1035 |     - |simplero|   0 | 716 |  77 |  77 |   0 |  0 |   0 |   0 |      --      | 2.344569e+01 |    Inf | unknown
r 0.1s|     1 |     0 |  1092 |     - |simplero|   0 | 727 |  77 |  77 |   0 |  0 |   0 |   0 |      --      | 2.075279e+01 |    Inf | unknown
r 0.1s|     1 |     0 |  1148 |     - |simplero|   0 | 738 |  77 |  77 |   0 |  0 |   0 |   0 |      --      | 1.953891e+01 |    Inf | unknown
r 0.1s|     1 |     0 |  1211 |     - |simplero|   0 | 749 |  77 |  77 |   0 |  0 |   0 |   0 |      --      | 1.674211e+01 |    Inf | unknown
r 0.1s|     1 |     0 |  1213 |     - |simplero|   0 | 749 |  77 |  77 |   0 |  0 |   0 |   0 |      --      | 1.674067e+01 |    Inf | unknown
r 0.1s|     1 |     0 |  1259 |     - |simplero|   0 | 760 |  77 |  77 |   0 |  0 |   0 |   0 |      --      | 1.601044e+01 |    Inf | unknown
r 0.1s|     1 |     0 |  1290 |     - |simplero|   0 | 760 |  77 |  77 |   0 |  0 |   0 |   0 |      --      | 1.556917e+01 |    Inf | unknown
r 0.1s|     1 |     0 |  1343 |     - |simplero|   0 | 771 |  77 |  77 |   0 |  0 |   0 |   0 |      --      | 1.432505e+01 |    Inf | unknown
r 0.1s|     1 |     0 |  1350 |     - |simplero|   0 | 771 |  77 |  77 |   0 |  0 |   0 |   0 |      --      | 1.431263e+01 |    Inf | unknown
r 0.1s|     1 |     0 |  1382 |     - |simplero|   0 | 782 |  77 |  77 |   0 |  0 |   0 |   0 |      --      | 1.333145e+01 |    Inf | unknown
r 0.1s|     1 |     0 |  1395 |     - |simplero|   0 | 782 |  77 |  77 |   0 |  0 |   0 |   0 |      --      | 1.327095e+01 |    Inf | unknown
 time | node  | left  |LP iter|LP it/n|mem/heur|mdpt |vars |cons |rows |cuts |sepa|confs|strbr|  dualbound   | primalbound  |  gap   | compl. 
r 0.1s|     1 |     0 |  1402 |     - |simplero|   0 | 782 |  77 |  77 |   0 |  0 |   0 |   0 |      --      | 1.326284e+01 |    Inf | unknown
r 0.1s|     1 |     0 |  1456 |     - |simplero|   0 | 793 |  77 |  77 |   0 |  0 |   0 |   0 |      --      | 1.232640e+01 |    Inf | unknown
r 0.1s|     1 |     0 |  1478 |     - |simplero|   0 | 793 |  77 |  77 |   0 |  0 |   0 |   0 |      --      | 1.214636e+01 |    Inf | unknown
r 0.1s|     1 |     0 |  1491 |     - |simplero|   0 | 793 |  77 |  77 |   0 |  0 |   0 |   0 |      --      | 1.205930e+01 |    Inf | unknown
r 0.1s|     1 |     0 |  1527 |     - |simplero|   0 | 804 |  77 |  77 |   0 |  0 |   0 |   0 |      --      | 1.149343e+01 |    Inf | unknown
r 0.1s|     1 |     0 |  1539 |     - |simplero|   0 | 804 |  77 |  77 |   0 |  0 |   0 |   0 |      --      | 1.136216e+01 |    Inf | unknown
r 0.1s|     1 |     0 |  1547 |     - |simplero|   0 | 804 |  77 |  77 |   0 |  0 |   0 |   0 |      --      | 1.135081e+01 |    Inf | unknown
r 0.1s|     1 |     0 |  1576 |     - |simplero|   0 | 815 |  77 |  77 |   0 |  0 |   0 |   0 |      --      | 1.111740e+01 |    Inf | unknown
r 0.1s|     1 |     0 |  1602 |     - |simplero|   0 | 815 |  77 |  77 |   0 |  0 |   0 |   0 |      --      | 1.093536e+01 |    Inf | unknown
r 0.1s|     1 |     0 |  1613 |     - |simplero|   0 | 815 |  77 |  77 |   0 |  0 |   0 |   0 |      --      | 1.092140e+01 |    Inf | unknown
r 0.1s|     1 |     0 |  1614 |     - |simplero|   0 | 815 |  77 |  77 |   0 |  0 |   0 |   0 |      --      | 1.091898e+01 |    Inf | unknown
r 0.1s|     1 |     0 |  1615 |     - |simplero|   0 | 815 |  77 |  77 |   0 |  0 |   0 |   0 |      --      | 1.091895e+01 |    Inf | unknown
r 0.1s|     1 |     0 |  1649 |     - |simplero|   0 | 826 |  77 |  77 |   0 |  0 |   0 |   0 |      --      | 1.056601e+01 |    Inf | unknown
r 0.1s|     1 |     0 |  1675 |     - |simplero|   0 | 826 |  77 |  77 |   0 |  0 |   0 |   0 |      --      | 1.033386e+01 |    Inf | unknown
r 0.1s|     1 |     0 |  1679 |     - |simplero|   0 | 826 |  77 |  77 |   0 |  0 |   0 |   0 |      --      | 1.033195e+01 |    Inf | unknown
 time | node  | left  |LP iter|LP it/n|mem/heur|mdpt |vars |cons |rows |cuts |sepa|confs|strbr|  dualbound   | primalbound  |  gap   | compl. 
r 0.1s|     1 |     0 |  1683 |     - |simplero|   0 | 826 |  77 |  77 |   0 |  0 |   0 |   0 |      --      | 1.033059e+01 |    Inf | unknown
r 0.1s|     1 |     0 |  1686 |     - |simplero|   0 | 826 |  77 |  77 |   0 |  0 |   0 |   0 |      --      | 1.032943e+01 |    Inf | unknown
r 0.1s|     1 |     0 |  1715 |     - |simplero|   0 | 837 |  77 |  77 |   0 |  0 |   0 |   0 |      --      | 1.014672e+01 |    Inf | unknown
  0.1s|     1 |     0 |  1738 |     - |  4185k |   0 | 837 |  77 |  77 |   0 |  0 |   0 |   0 |      --      | 1.014672e+01 |    Inf | unknown
r 0.1s|     1 |     0 |  1738 |     - |simplero|   0 | 837 |  77 |  77 |   0 |  0 |   0 |   0 |      --      | 1.007118e+01 |    Inf | unknown
r 0.1s|     1 |     0 |  1744 |     - |simplero|   0 | 837 |  77 |  77 |   0 |  0 |   0 |   0 |      --      | 1.006830e+01 |    Inf | unknown
r 0.1s|     1 |     0 |  1746 |     - |simplero|   0 | 837 |  77 |  77 |   0 |  0 |   0 |   0 |      --      | 1.006824e+01 |    Inf | unknown
r 0.1s|     1 |     0 |  1794 |     - |simplero|   0 | 848 |  77 |  77 |   0 |  0 |   0 |   0 |      --      | 9.731066e+00 |    Inf | unknown
r 0.1s|     1 |     0 |  1802 |     - |simplero|   0 | 848 |  77 |  77 |   0 |  0 |   0 |   0 |      --      | 9.719237e+00 |    Inf | unknown
r 0.1s|     1 |     0 |  1806 |     - |simplero|   0 | 848 |  77 |  77 |   0 |  0 |   0 |   0 |      --      | 9.718333e+00 |    Inf | unknown
r 0.1s|     1 |     0 |  1840 |     - |simplero|   0 | 859 |  77 |  77 |   0 |  0 |   0 |   0 |      --      | 9.428973e+00 |    Inf | unknown
r 0.1s|     1 |     0 |  1856 |     - |simplero|   0 | 859 |  77 |  77 |   0 |  0 |   0 |   0 |      --      | 9.358513e+00 |    Inf | unknown
r 0.1s|     1 |     0 |  1867 |     - |simplero|   0 | 859 |  77 |  77 |   0 |  0 |   0 |   0 |      --      | 9.335690e+00 |    Inf | unknown
r 0.1s|     1 |     0 |  1877 |     - |simplero|   0 | 859 |  77 |  77 |   0 |  0 |   0 |   0 |      --      | 9.328655e+00 |    Inf | unknown
r 0.1s|     1 |     0 |  1911 |     - |simplero|   0 | 870 |  77 |  77 |   0 |  0 |   0 |   0 |      --      | 9.108695e+00 |    Inf | unknown
 time | node  | left  |LP iter|LP it/n|mem/heur|mdpt |vars |cons |rows |cuts |sepa|confs|strbr|  dualbound   | primalbound  |  gap   | compl. 
r 0.1s|     1 |     0 |  1924 |     - |simplero|   0 | 870 |  77 |  77 |   0 |  0 |   0 |   0 |      --      | 9.088515e+00 |    Inf | unknown
r 0.1s|     1 |     0 |  1933 |     - |simplero|   0 | 870 |  77 |  77 |   0 |  0 |   0 |   0 |      --      | 9.085260e+00 |    Inf | unknown
r 0.1s|     1 |     0 |  1967 |     - |simplero|   0 | 881 |  77 |  77 |   0 |  0 |   0 |   0 |      --      | 8.855307e+00 |    Inf | unknown
r 0.1s|     1 |     0 |  1988 |     - |simplero|   0 | 892 |  77 |  77 |   0 |  0 |   0 |   0 |      --      | 8.693177e+00 |    Inf | unknown
r 0.1s|     1 |     0 |  1999 |     - |simplero|   0 | 901 |  77 |  77 |   0 |  0 |   0 |   0 |      --      | 8.664615e+00 |    Inf | unknown
r 0.1s|     1 |     0 |  2015 |     - |simplero|   0 | 907 |  77 |  77 |   0 |  0 |   0 |   0 |      --      | 8.604027e+00 |    Inf | unknown
r 0.1s|     1 |     0 |  2017 |     - |simplero|   0 | 907 |  77 |  77 |   0 |  0 |   0 |   0 |      --      | 8.604017e+00 |    Inf | unknown
r 0.1s|     1 |     0 |  2028 |     - |simplero|   0 | 915 |  77 |  77 |   0 |  0 |   0 |   0 |      --      | 8.585462e+00 |    Inf | unknown
r 0.1s|     1 |     0 |  2030 |     - |simplero|   0 | 915 |  77 |  77 |   0 |  0 |   0 |   0 |      --      | 8.584906e+00 |    Inf | unknown
r 0.1s|     1 |     0 |  2044 |     - |simplero|   0 | 919 |  77 |  77 |   0 |  0 |   0 |   0 |      --      | 8.559946e+00 |    Inf | unknown
r 0.1s|     1 |     0 |  2054 |     - |simplero|   0 | 924 |  77 |  77 |   0 |  0 |   0 |   0 |      --      | 8.550000e+00 |    Inf | unknown
r 0.1s|     1 |     0 |  2063 |     - |simplero|   0 | 924 |  77 |  77 |   0 |  0 |   0 |   0 |      --      | 8.534794e+00 |    Inf | unknown
  0.1s|     1 |     0 |  2063 |     - |  4568k |   0 | 924 |  77 |  77 |   0 |  0 |   0 |   0 | 8.534794e+00 | 8.534794e+00 |   0.00%| unknown
  0.1s|     1 |     0 |  2063 |     - |  4568k |   0 | 924 |  77 |  77 |   0 |  0 |   0 |   0 | 8.534794e+00 | 8.534794e+00 |   0.00%| unknown

SCIP Status        : problem is solved [optimal solution found]
Solving Time (sec) : 0.11
Solving Nodes      : 1
Primal Bound       : +8.53479381443299e+00 (55 solutions)
Dual Bound         : +8.53479381443299e+00
Gap                : 0.00 %

written transformed problem to file <results_rootrelaxation/bin012_070_034.srr.lp>
written transformed problem to file <results_rootrelaxation/bin012_070_034.srr.cip>

written solution information to file <results_rootrelaxation/bin012_070_034.srr.sol>



